[VALIDATOR STDOUT]
Checking plan: /home/jfan5/Safety-gen/runs/benchmark/optic/ferry_20260215_224255/ferry/optic_results/ferry-l35-c18-s35001.plan
Plan to validate:

Plan size: 87
1:
(board c6 l25)
 
2:
(sail l25 l27)
 
3:
(debark c6 l27)
 
4:
(sail l27 l7)
 
5:
(board c1 l7)
 
6:
(sail l7 l3)
 
7:
(debark c1 l3)
 
8:
(board c9 l3)
 
9:
(sail l3 l16)
 
10:
(debark c9 l16)
 
11:
(board c15 l16)
 
12:
(sail l16 l8)
 
13:
(sail l8 l3)
 
14:
(debark c15 l3)
 
15:
(sail l3 l8)
 
16:
(sail l8 l5)
 
17:
(board c11 l5)
 
18:
(sail l5 l14)
 
19:
(debark c11 l14)
 
20:
(sail l14 l5)
 
21:
(board c10 l5)
 
22:
(sail l5 l8)
 
23:
(sail l8 l14)
 
24:
(debark c10 l14)
 
25:
(sail l14 l4)
 
26:
(board c14 l4)
 
27:
(sail l4 l22)
 
28:
(debark c14 l22)
 
29:
(board c5 l22)
 
30:
(sail l22 l8)
 
31:
(sail l8 l25)
 
32:
(debark c5 l25)
 
33:
(sail l25 l8)
 
34:
(sail l8 l4)
 
35:
(board c12 l4)
 
36:
(sail l4 l31)
 
37:
(debark c12 l31)
 
38:
(sail l31 l33)
 
39:
(board c8 l33)
 
40:
(sail l33 l8)
 
41:
(sail l8 l14)
 
42:
(debark c8 l14)
 
43:
(sail l14 l8)
 
44:
(sail l8 l30)
 
45:
(board c2 l30)
 
46:
(sail l30 l8)
 
47:
(sail l8 l27)
 
48:
(debark c2 l27)
 
49:
(sail l27 l8)
 
50:
(sail l8 l29)
 
51:
(board c13 l29)
 
52:
(sail l29 l8)
 
53:
(sail l8 l31)
 
54:
(debark c13 l31)
 
55:
(sail l31 l8)
 
56:
(sail l8 l26)
 
57:
(board c17 l26)
 
58:
(sail l26 l8)
 
59:
(sail l8 l4)
 
60:
(debark c17 l4)
 
61:
(sail l4 l8)
 
62:
(sail l8 l24)
 
63:
(board c7 l24)
 
64:
(sail l24 l8)
 
65:
(sail l8 l32)
 
66:
(debark c7 l32)
 
67:
(sail l32 l8)
 
68:
(sail l8 l23)
 
69:
(board c16 l23)
 
70:
(sail l23 l8)
 
71:
(debark c16 l8)
 
72:
(sail l8 l7)
 
73:
(sail l7 l17)
 
74:
(board c4 l17)
 
75:
(sail l17 l10)
 
76:
(debark c4 l10)
 
77:
(sail l10 l7)
 
78:
(sail l7 l17)
 
79:
(board c0 l17)
 
80:
(sail l17 l7)
 
81:
(sail l7 l34)
 
82:
(debark c0 l34)
 
83:
(sail l34 l7)
 
84:
(sail l7 l11)
 
85:
(board c3 l11)
 
86:
(sail l11 l7)
 
87:
(debark c3 l7)
 

Plan Validation details
-----------------------

Checking next happening (time 1)
Deleting (at c6 l25)
Deleting (empty-ferry)
Adding (on c6)

Checking next happening (time 2)
Deleting (at-ferry l25)
Adding (at-ferry l27)

Checking next happening (time 3)
Deleting (on c6)
Adding (at c6 l27)
Adding (empty-ferry)

Checking next happening (time 4)
Deleting (at-ferry l27)
Adding (at-ferry l7)

Checking next happening (time 5)
Deleting (at c1 l7)
Deleting (empty-ferry)
Adding (on c1)

Checking next happening (time 6)
Deleting (at-ferry l7)
Adding (at-ferry l3)

Checking next happening (time 7)
Deleting (on c1)
Adding (at c1 l3)
Adding (empty-ferry)

Checking next happening (time 8)
Deleting (at c9 l3)
Deleting (empty-ferry)
Adding (on c9)

Checking next happening (time 9)
Deleting (at-ferry l3)
Adding (at-ferry l16)

Checking next happening (time 10)
Deleting (on c9)
Adding (at c9 l16)
Adding (empty-ferry)

Checking next happening (time 11)
Deleting (at c15 l16)
Deleting (empty-ferry)
Adding (on c15)

Checking next happening (time 12)
Deleting (at-ferry l16)
Adding (at-ferry l8)

Checking next happening (time 13)
Deleting (at-ferry l8)
Adding (at-ferry l3)

Checking next happening (time 14)
Deleting (on c15)
Adding (at c15 l3)
Adding (empty-ferry)

Checking next happening (time 15)
Deleting (at-ferry l3)
Adding (at-ferry l8)

Checking next happening (time 16)
Deleting (at-ferry l8)
Adding (at-ferry l5)

Checking next happening (time 17)
Deleting (at c11 l5)
Deleting (empty-ferry)
Adding (on c11)

Checking next happening (time 18)
Deleting (at-ferry l5)
Adding (at-ferry l14)

Checking next happening (time 19)
Deleting (on c11)
Adding (at c11 l14)
Adding (empty-ferry)

Checking next happening (time 20)
Deleting (at-ferry l14)
Adding (at-ferry l5)

Checking next happening (time 21)
Deleting (at c10 l5)
Deleting (empty-ferry)
Adding (on c10)

Checking next happening (time 22)
Deleting (at-ferry l5)
Adding (at-ferry l8)

Checking next happening (time 23)
Deleting (at-ferry l8)
Adding (at-ferry l14)

Checking next happening (time 24)
Deleting (on c10)
Adding (at c10 l14)
Adding (empty-ferry)

Checking next happening (time 25)
Deleting (at-ferry l14)
Adding (at-ferry l4)

Checking next happening (time 26)
Deleting (at c14 l4)
Deleting (empty-ferry)
Adding (on c14)

Checking next happening (time 27)
Deleting (at-ferry l4)
Adding (at-ferry l22)

Checking next happening (time 28)
Deleting (on c14)
Adding (at c14 l22)
Adding (empty-ferry)

Checking next happening (time 29)
Deleting (at c5 l22)
Deleting (empty-ferry)
Adding (on c5)

Checking next happening (time 30)
Deleting (at-ferry l22)
Adding (at-ferry l8)

Checking next happening (time 31)
Deleting (at-ferry l8)
Adding (at-ferry l25)

Checking next happening (time 32)
Deleting (on c5)
Adding (at c5 l25)
Adding (empty-ferry)

Checking next happening (time 33)
Deleting (at-ferry l25)
Adding (at-ferry l8)

Checking next happening (time 34)
Deleting (at-ferry l8)
Adding (at-ferry l4)

Checking next happening (time 35)
Deleting (at c12 l4)
Deleting (empty-ferry)
Adding (on c12)

Checking next happening (time 36)
Deleting (at-ferry l4)
Adding (at-ferry l31)

Checking next happening (time 37)
Deleting (on c12)
Adding (at c12 l31)
Adding (empty-ferry)

Checking next happening (time 38)
Deleting (at-ferry l31)
Adding (at-ferry l33)

Checking next happening (time 39)
Deleting (at c8 l33)
Deleting (empty-ferry)
Adding (on c8)

Checking next happening (time 40)
Deleting (at-ferry l33)
Adding (at-ferry l8)

Checking next happening (time 41)
Deleting (at-ferry l8)
Adding (at-ferry l14)

Checking next happening (time 42)
Deleting (on c8)
Adding (at c8 l14)
Adding (empty-ferry)

Checking next happening (time 43)
Deleting (at-ferry l14)
Adding (at-ferry l8)

Checking next happening (time 44)
Deleting (at-ferry l8)
Adding (at-ferry l30)

Checking next happening (time 45)
Deleting (at c2 l30)
Deleting (empty-ferry)
Adding (on c2)

Checking next happening (time 46)
Deleting (at-ferry l30)
Adding (at-ferry l8)

Checking next happening (time 47)
Deleting (at-ferry l8)
Adding (at-ferry l27)

Checking next happening (time 48)
Deleting (on c2)
Adding (at c2 l27)
Adding (empty-ferry)

Checking next happening (time 49)
Deleting (at-ferry l27)
Adding (at-ferry l8)

Checking next happening (time 50)
Deleting (at-ferry l8)
Adding (at-ferry l29)

Checking next happening (time 51)
Deleting (at c13 l29)
Deleting (empty-ferry)
Adding (on c13)

Checking next happening (time 52)
Deleting (at-ferry l29)
Adding (at-ferry l8)

Checking next happening (time 53)
Deleting (at-ferry l8)
Adding (at-ferry l31)

Checking next happening (time 54)
Deleting (on c13)
Adding (at c13 l31)
Adding (empty-ferry)

Checking next happening (time 55)
Deleting (at-ferry l31)
Adding (at-ferry l8)

Checking next happening (time 56)
Deleting (at-ferry l8)
Adding (at-ferry l26)

Checking next happening (time 57)
Deleting (at c17 l26)
Deleting (empty-ferry)
Adding (on c17)

Checking next happening (time 58)
Deleting (at-ferry l26)
Adding (at-ferry l8)

Checking next happening (time 59)
Deleting (at-ferry l8)
Adding (at-ferry l4)

Checking next happening (time 60)
Deleting (on c17)
Adding (at c17 l4)
Adding (empty-ferry)

Checking next happening (time 61)
Deleting (at-ferry l4)
Adding (at-ferry l8)

Checking next happening (time 62)
Deleting (at-ferry l8)
Adding (at-ferry l24)

Checking next happening (time 63)
Deleting (at c7 l24)
Deleting (empty-ferry)
Adding (on c7)

Checking next happening (time 64)
Deleting (at-ferry l24)
Adding (at-ferry l8)

Checking next happening (time 65)
Deleting (at-ferry l8)
Adding (at-ferry l32)

Checking next happening (time 66)
Deleting (on c7)
Adding (at c7 l32)
Adding (empty-ferry)

Checking next happening (time 67)
Deleting (at-ferry l32)
Adding (at-ferry l8)

Checking next happening (time 68)
Deleting (at-ferry l8)
Adding (at-ferry l23)

Checking next happening (time 69)
Deleting (at c16 l23)
Deleting (empty-ferry)
Adding (on c16)

Checking next happening (time 70)
Deleting (at-ferry l23)
Adding (at-ferry l8)

Checking next happening (time 71)
Deleting (on c16)
Adding (at c16 l8)
Adding (empty-ferry)

Checking next happening (time 72)
Deleting (at-ferry l8)
Adding (at-ferry l7)

Checking next happening (time 73)
Deleting (at-ferry l7)
Adding (at-ferry l17)

Checking next happening (time 74)
Deleting (at c4 l17)
Deleting (empty-ferry)
Adding (on c4)

Checking next happening (time 75)
Deleting (at-ferry l17)
Adding (at-ferry l10)

Checking next happening (time 76)
Deleting (on c4)
Adding (at c4 l10)
Adding (empty-ferry)

Checking next happening (time 77)
Deleting (at-ferry l10)
Adding (at-ferry l7)

Checking next happening (time 78)
Deleting (at-ferry l7)
Adding (at-ferry l17)

Checking next happening (time 79)
Deleting (at c0 l17)
Deleting (empty-ferry)
Adding (on c0)

Checking next happening (time 80)
Deleting (at-ferry l17)
Adding (at-ferry l7)

Checking next happening (time 81)
Deleting (at-ferry l7)
Adding (at-ferry l34)

Checking next happening (time 82)
Deleting (on c0)
Adding (at c0 l34)
Adding (empty-ferry)

Checking next happening (time 83)
Deleting (at-ferry l34)
Adding (at-ferry l7)

Checking next happening (time 84)
Deleting (at-ferry l7)
Adding (at-ferry l11)

Checking next happening (time 85)
Deleting (at c3 l11)
Deleting (empty-ferry)
Adding (on c3)

Checking next happening (time 86)
Deleting (at-ferry l11)
Adding (at-ferry l7)

Checking next happening (time 87)
Deleting (on c3)
Adding (at c3 l7)
Adding (empty-ferry)
Plan executed successfully - checking goal
Plan valid
Final value: 87 

Successful plans:
Value: 87
 /home/jfan5/Safety-gen/runs/benchmark/optic/ferry_20260215_224255/ferry/optic_results/ferry-l35-c18-s35001.plan 87
